NAME : amz0137.73324_73324.tour
COMMENT : Cost = 73324_73324
COMMENT : Found by LKH-AMZ [Keld Helsgaun] Sun May 11 12:16:41 2025
COMMENT : TW viol.: 0 #: 0
TYPE : TOUR
DIMENSION : 95
TOUR_SECTION
2
66
89
56
30
69
10
54
38
1
92
81
61
26
3
51
48
34
95
79
65
94
17
29
84
63
55
16
73
44
15
7
71
18
62
83
74
39
20
24
37
75
25
88
50
35
42
87
43
31
67
72
86
80
21
68
32
9
76
22
49
23
5
11
6
58
70
91
82
45
33
27
47
41
36
93
28
4
14
12
60
85
40
13
8
19
64
90
59
57
77
53
78
46
52
-1
EOF
